--------------------------------------------------
s SATISFIABLE
benchmarks_SAT/INST_16x16/25/inst16x16_25_0.cnf : 32 ms.
--------------------------------------------------
s SATISFIABLE
benchmarks_SAT/INST_16x16/25/inst16x16_25_10.cnf : 34 ms.
--------------------------------------------------
s SATISFIABLE
benchmarks_SAT/INST_16x16/25/inst16x16_25_11.cnf : 26 ms.
--------------------------------------------------
s SATISFIABLE
benchmarks_SAT/INST_16x16/25/inst16x16_25_12.cnf : 34 ms.
--------------------------------------------------
s SATISFIABLE
benchmarks_SAT/INST_16x16/25/inst16x16_25_13.cnf : 38 ms.
--------------------------------------------------
s SATISFIABLE
benchmarks_SAT/INST_16x16/25/inst16x16_25_14.cnf : 37 ms.
--------------------------------------------------
s SATISFIABLE
benchmarks_SAT/INST_16x16/25/inst16x16_25_15.cnf : 32 ms.
--------------------------------------------------
s SATISFIABLE
benchmarks_SAT/INST_16x16/25/inst16x16_25_16.cnf : 37 ms.
--------------------------------------------------
s SATISFIABLE
benchmarks_SAT/INST_16x16/25/inst16x16_25_17.cnf : 35 ms.
--------------------------------------------------
s SATISFIABLE
benchmarks_SAT/INST_16x16/25/inst16x16_25_18.cnf : 33 ms.
--------------------------------------------------
s SATISFIABLE
benchmarks_SAT/INST_16x16/25/inst16x16_25_19.cnf : 28 ms.
--------------------------------------------------
s SATISFIABLE
benchmarks_SAT/INST_16x16/25/inst16x16_25_1.cnf : 36 ms.
--------------------------------------------------
s SATISFIABLE
benchmarks_SAT/INST_16x16/25/inst16x16_25_20.cnf : 31 ms.
--------------------------------------------------
s SATISFIABLE
benchmarks_SAT/INST_16x16/25/inst16x16_25_21.cnf : 41 ms.
--------------------------------------------------
s SATISFIABLE
benchmarks_SAT/INST_16x16/25/inst16x16_25_22.cnf : 32 ms.
--------------------------------------------------
s SATISFIABLE
benchmarks_SAT/INST_16x16/25/inst16x16_25_23.cnf : 33 ms.
--------------------------------------------------
s SATISFIABLE
benchmarks_SAT/INST_16x16/25/inst16x16_25_24.cnf : 38 ms.
--------------------------------------------------
s SATISFIABLE
benchmarks_SAT/INST_16x16/25/inst16x16_25_25.cnf : 39 ms.
--------------------------------------------------
s SATISFIABLE
benchmarks_SAT/INST_16x16/25/inst16x16_25_26.cnf : 28 ms.
--------------------------------------------------
s SATISFIABLE
benchmarks_SAT/INST_16x16/25/inst16x16_25_27.cnf : 26 ms.
--------------------------------------------------
s SATISFIABLE
benchmarks_SAT/INST_16x16/25/inst16x16_25_28.cnf : 26 ms.
--------------------------------------------------
s SATISFIABLE
benchmarks_SAT/INST_16x16/25/inst16x16_25_29.cnf : 26 ms.
--------------------------------------------------
s SATISFIABLE
benchmarks_SAT/INST_16x16/25/inst16x16_25_2.cnf : 28 ms.
--------------------------------------------------
s SATISFIABLE
benchmarks_SAT/INST_16x16/25/inst16x16_25_30.cnf : 27 ms.
--------------------------------------------------
s SATISFIABLE
benchmarks_SAT/INST_16x16/25/inst16x16_25_31.cnf : 41 ms.
--------------------------------------------------
s SATISFIABLE
benchmarks_SAT/INST_16x16/25/inst16x16_25_32.cnf : 24 ms.
--------------------------------------------------
s SATISFIABLE
benchmarks_SAT/INST_16x16/25/inst16x16_25_33.cnf : 29 ms.
--------------------------------------------------
s SATISFIABLE
benchmarks_SAT/INST_16x16/25/inst16x16_25_34.cnf : 28 ms.
--------------------------------------------------
s SATISFIABLE
benchmarks_SAT/INST_16x16/25/inst16x16_25_35.cnf : 36 ms.
--------------------------------------------------
s SATISFIABLE
benchmarks_SAT/INST_16x16/25/inst16x16_25_36.cnf : 35 ms.
--------------------------------------------------
s SATISFIABLE
benchmarks_SAT/INST_16x16/25/inst16x16_25_37.cnf : 26 ms.
--------------------------------------------------
s SATISFIABLE
benchmarks_SAT/INST_16x16/25/inst16x16_25_38.cnf : 28 ms.
--------------------------------------------------
s SATISFIABLE
benchmarks_SAT/INST_16x16/25/inst16x16_25_39.cnf : 30 ms.
--------------------------------------------------
s SATISFIABLE
benchmarks_SAT/INST_16x16/25/inst16x16_25_3.cnf : 28 ms.
--------------------------------------------------
s SATISFIABLE
benchmarks_SAT/INST_16x16/25/inst16x16_25_40.cnf : 44 ms.
--------------------------------------------------
s SATISFIABLE
benchmarks_SAT/INST_16x16/25/inst16x16_25_41.cnf : 29 ms.
--------------------------------------------------
s SATISFIABLE
benchmarks_SAT/INST_16x16/25/inst16x16_25_42.cnf : 31 ms.
--------------------------------------------------
s SATISFIABLE
benchmarks_SAT/INST_16x16/25/inst16x16_25_43.cnf : 36 ms.
--------------------------------------------------
s SATISFIABLE
benchmarks_SAT/INST_16x16/25/inst16x16_25_44.cnf : 38 ms.
--------------------------------------------------
s SATISFIABLE
benchmarks_SAT/INST_16x16/25/inst16x16_25_45.cnf : 36 ms.
--------------------------------------------------
s SATISFIABLE
benchmarks_SAT/INST_16x16/25/inst16x16_25_46.cnf : 27 ms.
--------------------------------------------------
s SATISFIABLE
benchmarks_SAT/INST_16x16/25/inst16x16_25_47.cnf : 29 ms.
--------------------------------------------------
s SATISFIABLE
benchmarks_SAT/INST_16x16/25/inst16x16_25_48.cnf : 31 ms.
--------------------------------------------------
s SATISFIABLE
benchmarks_SAT/INST_16x16/25/inst16x16_25_49.cnf : 26 ms.
--------------------------------------------------
s SATISFIABLE
benchmarks_SAT/INST_16x16/25/inst16x16_25_4.cnf : 51 ms.
--------------------------------------------------
s SATISFIABLE
benchmarks_SAT/INST_16x16/25/inst16x16_25_50.cnf : 40 ms.
--------------------------------------------------
s SATISFIABLE
benchmarks_SAT/INST_16x16/25/inst16x16_25_51.cnf : 25 ms.
--------------------------------------------------
s SATISFIABLE
benchmarks_SAT/INST_16x16/25/inst16x16_25_52.cnf : 29 ms.
--------------------------------------------------
s SATISFIABLE
benchmarks_SAT/INST_16x16/25/inst16x16_25_53.cnf : 43 ms.
--------------------------------------------------
s SATISFIABLE
benchmarks_SAT/INST_16x16/25/inst16x16_25_54.cnf : 31 ms.
--------------------------------------------------
s SATISFIABLE
benchmarks_SAT/INST_16x16/25/inst16x16_25_55.cnf : 68 ms.
--------------------------------------------------
s SATISFIABLE
benchmarks_SAT/INST_16x16/25/inst16x16_25_56.cnf : 35 ms.
--------------------------------------------------
s SATISFIABLE
benchmarks_SAT/INST_16x16/25/inst16x16_25_57.cnf : 42 ms.
--------------------------------------------------
s SATISFIABLE
benchmarks_SAT/INST_16x16/25/inst16x16_25_58.cnf : 39 ms.
--------------------------------------------------
s SATISFIABLE
benchmarks_SAT/INST_16x16/25/inst16x16_25_59.cnf : 41 ms.
--------------------------------------------------
s SATISFIABLE
benchmarks_SAT/INST_16x16/25/inst16x16_25_5.cnf : 49 ms.
--------------------------------------------------
s SATISFIABLE
benchmarks_SAT/INST_16x16/25/inst16x16_25_60.cnf : 34 ms.
--------------------------------------------------
s SATISFIABLE
benchmarks_SAT/INST_16x16/25/inst16x16_25_61.cnf : 28 ms.
--------------------------------------------------
s SATISFIABLE
benchmarks_SAT/INST_16x16/25/inst16x16_25_62.cnf : 38 ms.
--------------------------------------------------
s SATISFIABLE
benchmarks_SAT/INST_16x16/25/inst16x16_25_63.cnf : 38 ms.
--------------------------------------------------
s SATISFIABLE
benchmarks_SAT/INST_16x16/25/inst16x16_25_64.cnf : 47 ms.
--------------------------------------------------
s SATISFIABLE
benchmarks_SAT/INST_16x16/25/inst16x16_25_65.cnf : 33 ms.
--------------------------------------------------
s SATISFIABLE
benchmarks_SAT/INST_16x16/25/inst16x16_25_66.cnf : 40 ms.
--------------------------------------------------
s SATISFIABLE
benchmarks_SAT/INST_16x16/25/inst16x16_25_67.cnf : 28 ms.
--------------------------------------------------
s SATISFIABLE
benchmarks_SAT/INST_16x16/25/inst16x16_25_68.cnf : 42 ms.
--------------------------------------------------
s SATISFIABLE
benchmarks_SAT/INST_16x16/25/inst16x16_25_69.cnf : 30 ms.
--------------------------------------------------
s SATISFIABLE
benchmarks_SAT/INST_16x16/25/inst16x16_25_6.cnf : 30 ms.
--------------------------------------------------
s SATISFIABLE
benchmarks_SAT/INST_16x16/25/inst16x16_25_70.cnf : 59 ms.
--------------------------------------------------
s SATISFIABLE
benchmarks_SAT/INST_16x16/25/inst16x16_25_71.cnf : 63 ms.
--------------------------------------------------
s SATISFIABLE
benchmarks_SAT/INST_16x16/25/inst16x16_25_72.cnf : 48 ms.
--------------------------------------------------
s SATISFIABLE
benchmarks_SAT/INST_16x16/25/inst16x16_25_73.cnf : 45 ms.
--------------------------------------------------
s SATISFIABLE
benchmarks_SAT/INST_16x16/25/inst16x16_25_74.cnf : 27 ms.
--------------------------------------------------
s SATISFIABLE
benchmarks_SAT/INST_16x16/25/inst16x16_25_75.cnf : 42 ms.
--------------------------------------------------
s SATISFIABLE
benchmarks_SAT/INST_16x16/25/inst16x16_25_76.cnf : 26 ms.
--------------------------------------------------
s SATISFIABLE
benchmarks_SAT/INST_16x16/25/inst16x16_25_77.cnf : 54 ms.
--------------------------------------------------
s SATISFIABLE
benchmarks_SAT/INST_16x16/25/inst16x16_25_78.cnf : 34 ms.
--------------------------------------------------
s SATISFIABLE
benchmarks_SAT/INST_16x16/25/inst16x16_25_79.cnf : 42 ms.
--------------------------------------------------
s SATISFIABLE
benchmarks_SAT/INST_16x16/25/inst16x16_25_7.cnf : 37 ms.
--------------------------------------------------
s SATISFIABLE
benchmarks_SAT/INST_16x16/25/inst16x16_25_80.cnf : 36 ms.
--------------------------------------------------
s SATISFIABLE
benchmarks_SAT/INST_16x16/25/inst16x16_25_81.cnf : 42 ms.
--------------------------------------------------
s SATISFIABLE
benchmarks_SAT/INST_16x16/25/inst16x16_25_82.cnf : 48 ms.
--------------------------------------------------
s SATISFIABLE
benchmarks_SAT/INST_16x16/25/inst16x16_25_83.cnf : 46 ms.
--------------------------------------------------
s SATISFIABLE
benchmarks_SAT/INST_16x16/25/inst16x16_25_84.cnf : 35 ms.
--------------------------------------------------
s SATISFIABLE
benchmarks_SAT/INST_16x16/25/inst16x16_25_85.cnf : 34 ms.
--------------------------------------------------
s SATISFIABLE
benchmarks_SAT/INST_16x16/25/inst16x16_25_86.cnf : 29 ms.
--------------------------------------------------
s SATISFIABLE
benchmarks_SAT/INST_16x16/25/inst16x16_25_87.cnf : 33 ms.
--------------------------------------------------
s SATISFIABLE
benchmarks_SAT/INST_16x16/25/inst16x16_25_88.cnf : 26 ms.
--------------------------------------------------
s SATISFIABLE
benchmarks_SAT/INST_16x16/25/inst16x16_25_89.cnf : 34 ms.
--------------------------------------------------
s SATISFIABLE
benchmarks_SAT/INST_16x16/25/inst16x16_25_8.cnf : 33 ms.
--------------------------------------------------
s SATISFIABLE
benchmarks_SAT/INST_16x16/25/inst16x16_25_90.cnf : 51 ms.
--------------------------------------------------
s SATISFIABLE
benchmarks_SAT/INST_16x16/25/inst16x16_25_91.cnf : 28 ms.
--------------------------------------------------
s SATISFIABLE
benchmarks_SAT/INST_16x16/25/inst16x16_25_92.cnf : 33 ms.
--------------------------------------------------
s SATISFIABLE
benchmarks_SAT/INST_16x16/25/inst16x16_25_93.cnf : 33 ms.
--------------------------------------------------
s SATISFIABLE
benchmarks_SAT/INST_16x16/25/inst16x16_25_94.cnf : 39 ms.
--------------------------------------------------
s SATISFIABLE
benchmarks_SAT/INST_16x16/25/inst16x16_25_95.cnf : 33 ms.
--------------------------------------------------
s SATISFIABLE
benchmarks_SAT/INST_16x16/25/inst16x16_25_96.cnf : 32 ms.
--------------------------------------------------
s SATISFIABLE
benchmarks_SAT/INST_16x16/25/inst16x16_25_97.cnf : 44 ms.
--------------------------------------------------
s SATISFIABLE
benchmarks_SAT/INST_16x16/25/inst16x16_25_98.cnf : 32 ms.
--------------------------------------------------
s SATISFIABLE
benchmarks_SAT/INST_16x16/25/inst16x16_25_99.cnf : 33 ms.
--------------------------------------------------
s SATISFIABLE
benchmarks_SAT/INST_16x16/25/inst16x16_25_9.cnf : 33 ms.
